interval = 30;
days = 7;
demand = [3,3,3,3,3,3,3,3,3,3,6,6,3,5,5,5,5,5,5,5,5,5,5,5,5,5,10,11,9,9,9,9,9,9,9,9,9,9,9,9,9,3,2,2,2,3,7,7,7,7,7,7,7,7,7,7,7,7,8,6,2,7,7,7,7,7,7,7,7,7,7,7,7,7,12,15,13,13,9,9,9,9,9,9,9,9,9,9,9,3,2,2,2,3,7,7,7,7,7,7,7,7,7,7,7,7,8,6,2,7,7,7,7,7,7,7,7,7,7,7,7,7,12,15,13,13,9,9,9,9,9,9,9,9,9,9,9,3,4,4,4,5,9,9,9,9,9,9,9,9,9,9,9,9,11,7,3,8,8,8,8,8,8,8,8,8,8,8,8,8,13,15,13,13,9,9,9,9,9,9,9,9,9,9,9,3,2,2,2,3,7,7,7,7,7,7,7,7,7,7,7,7,8,6,2,9,9,9,9,9,9,9,9,9,9,9,9,9,14,17,13,13,9,9,9,9,9,9,9,9,9,9,9,3,2,2,2,3,7,7,7,7,7,7,7,7,7,7,7,7,8,6,2,4,4,4,4,4,4,4,4,4,4,4,4,4,12,16,16,16,15,15,15,15,15,15,15,15,15,15,15,5,2,2,2,2,4,4,4,4,4,4,4,4,4,4,4,4,5,5,1,4,4,4,4,4,4,4,4,4,4,4,4,4,12,16,17,17,16,16,16,16,16,16,16,16,16,16,16,6,3,3,3,3,3,3];
shiftTypes = 4;
minStart = [10, 18, 26, 42];
maxStart = [16, 22, 30, 46];
minLength = [14, 14, 14, 14];
maxLength = [18, 18, 18, 18];
minDuties = 3;
maxDuties = 5;
avgMinutes = 2310;
weightUnderCover = 1;
weightOverCover = 1;
weightDutiesPerWeek = 0;
weightShiftInstances = 30;
